NAME: tsp_424
COMMENT: Random TSP instance
TYPE: TSP
DIMENSION: 50
EDGE_WEIGHT_TYPE: EUC_2D
NODE_COORD_SECTION
1 967 82
2 408 330
3 584 903
4 549 981
5 99 965
6 498 635
7 895 597
8 892 906
9 928 620
10 479 193
11 893 351
12 134 760
13 148 383
14 136 137
15 206 862
16 51 627
17 51 139
18 766 999
19 939 15
20 147 582
21 255 542
22 367 929
23 751 549
24 100 885
25 661 835
26 848 139
27 103 778
28 187 424
29 59 304
30 73 640
31 748 983
32 529 276
33 648 777
34 535 717
35 629 374
36 685 535
37 294 655
38 175 162
39 88 886
40 809 448
41 102 27
42 925 641
43 270 306
44 554 396
45 499 313
46 431 957
47 853 572
48 781 25
49 568 971
50 304 230
